certificates/rado_a13_c95_N37.cnf
c Rad2 upper bound instance: x1 + 13*x2 - x3 = 95, interval [1,37]
p cnf 37 210
1 8 10 0
-1 -8 -10 0
1 9 23 0
-1 -9 -23 0
1 10 36 0
-1 -10 -36 0
2 8 11 0
-2 -8 -11 0
2 9 24 0
-2 -9 -24 0
2 10 37 0
-2 -10 -37 0
3 8 12 0
-3 -8 -12 0
3 9 25 0
-3 -9 -25 0
4 8 13 0
-4 -8 -13 0
4 9 26 0
-4 -9 -26 0
1 5 7 0
-1 -5 -7 0
5 8 14 0
-5 -8 -14 0
5 9 27 0
-5 -9 -27 0
2 6 7 0
-2 -6 -7 0
6 8 15 0
-6 -8 -15 0
6 9 28 0
-6 -9 -28 0
3 7 0
-3 -7 0
7 8 16 0
-7 -8 -16 0
7 9 29 0
-7 -9 -29 0
4 7 8 0
-4 -7 -8 0
8 17 0
-8 -17 0
8 9 30 0
-8 -9 -30 0
5 7 9 0
-5 -7 -9 0
8 9 18 0
-8 -9 -18 0
9 31 0
-9 -31 0
6 7 10 0
-6 -7 -10 0
8 10 19 0
-8 -10 -19 0
9 10 32 0
-9 -10 -32 0
7 11 0
-7 -11 0
8 11 20 0
-8 -11 -20 0
9 11 33 0
-9 -11 -33 0
7 8 12 0
-7 -8 -12 0
8 12 21 0
-8 -12 -21 0
9 12 34 0
-9 -12 -34 0
7 9 13 0
-7 -9 -13 0
8 13 22 0
-8 -13 -22 0
9 13 35 0
-9 -13 -35 0
7 10 14 0
-7 -10 -14 0
8 14 23 0
-8 -14 -23 0
9 14 36 0
-9 -14 -36 0
7 11 15 0
-7 -11 -15 0
8 15 24 0
-8 -15 -24 0
9 15 37 0
-9 -15 -37 0
7 12 16 0
-7 -12 -16 0
8 16 25 0
-8 -16 -25 0
7 13 17 0
-7 -13 -17 0
8 17 26 0
-8 -17 -26 0
1 6 18 0
-1 -6 -18 0
7 14 18 0
-7 -14 -18 0
8 18 27 0
-8 -18 -27 0
2 6 19 0
-2 -6 -19 0
7 15 19 0
-7 -15 -19 0
8 19 28 0
-8 -19 -28 0
3 6 20 0
-3 -6 -20 0
7 16 20 0
-7 -16 -20 0
8 20 29 0
-8 -20 -29 0
4 6 21 0
-4 -6 -21 0
7 17 21 0
-7 -17 -21 0
8 21 30 0
-8 -21 -30 0
5 6 22 0
-5 -6 -22 0
7 18 22 0
-7 -18 -22 0
8 22 31 0
-8 -22 -31 0
6 23 0
-6 -23 0
7 19 23 0
-7 -19 -23 0
8 23 32 0
-8 -23 -32 0
6 7 24 0
-6 -7 -24 0
7 20 24 0
-7 -20 -24 0
8 24 33 0
-8 -24 -33 0
6 8 25 0
-6 -8 -25 0
7 21 25 0
-7 -21 -25 0
8 25 34 0
-8 -25 -34 0
6 9 26 0
-6 -9 -26 0
7 22 26 0
-7 -22 -26 0
8 26 35 0
-8 -26 -35 0
6 10 27 0
-6 -10 -27 0
7 23 27 0
-7 -23 -27 0
8 27 36 0
-8 -27 -36 0
6 11 28 0
-6 -11 -28 0
7 24 28 0
-7 -24 -28 0
8 28 37 0
-8 -28 -37 0
6 12 29 0
-6 -12 -29 0
7 25 29 0
-7 -25 -29 0
6 13 30 0
-6 -13 -30 0
7 26 30 0
-7 -26 -30 0
1 5 31 0
-1 -5 -31 0
6 14 31 0
-6 -14 -31 0
7 27 31 0
-7 -27 -31 0
2 5 32 0
-2 -5 -32 0
6 15 32 0
-6 -15 -32 0
7 28 32 0
-7 -28 -32 0
3 5 33 0
-3 -5 -33 0
6 16 33 0
-6 -16 -33 0
7 29 33 0
-7 -29 -33 0
4 5 34 0
-4 -5 -34 0
6 17 34 0
-6 -17 -34 0
7 30 34 0
-7 -30 -34 0
5 35 0
-5 -35 0
6 18 35 0
-6 -18 -35 0
7 31 35 0
-7 -31 -35 0
5 6 36 0
-5 -6 -36 0
6 19 36 0
-6 -19 -36 0
7 32 36 0
-7 -32 -36 0
5 7 37 0
-5 -7 -37 0
6 20 37 0
-6 -20 -37 0
7 33 37 0
-7 -33 -37 0
