certificates/rado_a13_c95_N37.drat
-33 5 -37 0
5 -36 -37 0
-36 -37 0
d 5 -36 -37 0
-5 -32 7 0
7 -37 0
-37 0
-6 -7 0
d -6 -2 -7 0
-7 0
3 0
11 0
5 0
33 0
-35 0
0
